
Gurobi 11.0.0 (win64, C++) logging started Tue Jul 29 23:05:39 2025

Set parameter TokenServer to value "141.76.38.119"
### START HEURISTIC APPROACH APPROACH ###
ProblemVariant: 1
### START PREPROCESSING ###
## Start start solution procedure ##
Not enough vehicles for start solution, copying existing vehicle(s)...
Copied 1 vehicle(s). Total vehicles now: 5
Start solution with 5 Vehicles and total costs 396.674 in 3.72614 s.
### END PREPROCESSING ###
Route 0 0-16-18-10-12-0 : weight util 0.670588 | volume util 0.618022 | infeasible with packing heuristic | feasible with CP model
Route 1 0-4-15-14-13-0 : weight util 0.882353 | volume util 0.477533 | infeasible with packing heuristic | feasible with CP model
Route 2 0-2-0 : weight util 0.341176 | volume util 0.044800 | infeasible with packing heuristic | feasible with CP model
Route 3 0-5-9-3-8-0 : weight util 0.976471 | volume util 0.564533 | infeasible with packing heuristic | feasible with CP model
Route 4 0-7-20-11-19-6-1-17-0 : weight util 1.000000 | volume util 0.535844 | infeasible with packing heuristic | feasible with CP model
